








































































































2 13 62 45 5 59 27 22 
38 30 54 57 47 68 16 70 
58 7 42 51 43 23 28 76 
49 32 36 72 69 15 48 
3 8 9 34 41 33 63 14 
74 66 60 75 20 26 12 50 
37 73 35 0 10 19 17 29 
67 44 39 71 18 31 1 4 
24 61 53 21 64 52 56 
11 6 46 65 25 40 55 
